(set-info :smt-lib-version 2.6)
(set-logic UF)
(set-info :source |Benchmarks from the paper: "Extending Sledgehammer with SMT Solvers" by Jasmin Blanchette, Sascha Bohme, and Lawrence C. Paulson, CADE 2011.  Translated to SMT2 by Andrew Reynolds and Morgan Deters.|)
(set-info :category "industrial")
(set-info :status sat)
(declare-sort S1 0)
(declare-sort S2 0)
(declare-sort S3 0)
(declare-sort S4 0)
(declare-sort S5 0)
(declare-sort S6 0)
(declare-sort S7 0)
(declare-sort S8 0)
(declare-sort S9 0)
(declare-sort S10 0)
(declare-sort S11 0)
(declare-sort S12 0)
(declare-sort S13 0)
(declare-sort S14 0)
(declare-sort S15 0)
(declare-sort S16 0)
(declare-sort S17 0)
(declare-sort S18 0)
(declare-sort S19 0)
(declare-sort S20 0)
(declare-sort S21 0)
(declare-sort S22 0)
(declare-sort S23 0)
(declare-sort S24 0)
(declare-fun f1 () S1)
(declare-fun f2 () S1)
(declare-fun f3 (S2 S3) S4)
(declare-fun f4 () S2)
(declare-fun f5 () S3)
(declare-fun f6 () S4)
(declare-fun f7 () S3)
(declare-fun f8 (S5 S6) S3)
(declare-fun f9 (S7 S4) S5)
(declare-fun f10 () S7)
(declare-fun f11 () S4)
(declare-fun f12 () S6)
(declare-fun f13 () S2)
(declare-fun f14 (S3 S8) S1)
(declare-fun f15 (S9) S8)
(declare-fun f16 () S9)
(declare-fun f17 (S10 S9) S9)
(declare-fun f18 () S10)
(declare-fun f19 (S11 S4) S4)
(declare-fun f20 () S11)
(declare-fun f21 (S12 S3) S3)
(declare-fun f22 () S12)
(declare-fun f23 (S13 S6) S12)
(declare-fun f24 (S14 S4) S13)
(declare-fun f25 () S14)
(declare-fun f26 (S4 S15) S1)
(declare-fun f27 () S15)
(declare-fun f28 (S16 S4) S12)
(declare-fun f29 () S16)
(declare-fun f30 (S17 S6) S4)
(declare-fun f31 () S17)
(declare-fun f32 (S18 S9) S6)
(declare-fun f33 (S19 S2) S18)
(declare-fun f34 () S19)
(declare-fun f35 (S4) S1)
(declare-fun f36 (S20 S12) S10)
(declare-fun f37 () S20)
(declare-fun f38 (S21 S6) S6)
(declare-fun f39 (S22 S11) S21)
(declare-fun f40 () S22)
(declare-fun f41 (S6) S15)
(declare-fun f42 (S23 S4) S7)
(declare-fun f43 () S23)
(declare-fun f44 (S24 S4) S21)
(declare-fun f45 () S24)
(declare-fun f46 () S4)
(declare-fun f47 () S6)
(declare-fun f48 (S3 S6) S1)
(declare-fun f49 () S15)
(assert (not (= f1 f2)))
(assert (not (not (= (f3 f4 f5) f6))))
(assert (= f7 (f8 (f9 f10 f11) f12)))
(assert (not (= (f3 f13 f7) f6)))
(assert (not (= (f3 f4 f7) f6)))
(assert (not (= (f3 f13 f7) f6)))
(assert (not (= (f3 f4 f7) f6)))
(assert (forall ((?v0 S4)) (= (= f6 ?v0) (= ?v0 f6))))
(assert (forall ((?v0 S3)) (=> (= (f14 ?v0 (f15 f16)) f1) (not (= (f3 f4 ?v0) f6)))))
(assert (= (f14 f5 (f15 (f17 f18 f16))) f1))
(assert (= (f19 f20 f6) f6))
(assert (forall ((?v0 S4)) (= (= f6 (f19 f20 ?v0)) (= ?v0 f6))))
(assert (forall ((?v0 S4)) (= (= (f19 f20 ?v0) f6) (= ?v0 f6))))
(assert (forall ((?v0 S3)) (=> (not (not (= (f3 f13 ?v0) f6))) (=> (not (= (f3 f4 ?v0) f6)) (not (= (f3 f4 (f21 f22 ?v0)) f6))))))
(assert (forall ((?v0 S3)) (=> (= (f14 ?v0 (f15 f16)) f1) (not (= (f3 f13 ?v0) f6)))))
(assert (forall ((?v0 S4) (?v1 S6) (?v2 S3)) (= (f3 f4 (f21 (f23 (f24 f25 ?v0) ?v1) ?v2)) (f3 f4 ?v2))))
(assert (= (f26 f6 f27) f1))
(assert (= f5 (f21 (f28 f29 (f30 f31 (f32 (f33 f34 f13) f16))) f7)))
(assert (= (f35 f6) f1))
(assert (= f7 (f8 (f9 f10 f11) f12)))
(assert (= (f14 f7 (f15 f16)) f1))
(assert (exists ((?v0 S3)) (and (= (f14 ?v0 (f15 f16)) f1) (= f5 (f21 (f28 f29 (f30 f31 (f32 (f33 f34 f13) f16))) ?v0)))))
(assert (=> (forall ((?v0 S3)) (=> (= (f14 ?v0 (f15 f16)) f1) (=> (= f5 (f21 (f28 f29 (f30 f31 (f32 (f33 f34 f13) f16))) ?v0)) false))) false))
(assert (forall ((?v0 S4) (?v1 S4)) (= (= (f19 f20 ?v0) (f19 f20 ?v1)) (= ?v0 ?v1))))
(assert (forall ((?v0 S4)) (= (= (f35 ?v0) f1) (= ?v0 f6))))
(assert (forall ((?v0 S12) (?v1 S9) (?v2 S12)) (= (= (f17 (f36 f37 ?v0) ?v1) (f17 (f36 f37 ?v2) ?v1)) (forall ((?v3 S3)) (=> (= (f14 ?v3 (f15 ?v1)) f1) (= (f21 ?v0 ?v3) (f21 ?v2 ?v3)))))))
(assert (forall ((?v0 S11) (?v1 S6) (?v2 S11)) (= (= (f38 (f39 f40 ?v0) ?v1) (f38 (f39 f40 ?v2) ?v1)) (forall ((?v3 S4)) (=> (= (f26 ?v3 (f41 ?v1)) f1) (= (f19 ?v0 ?v3) (f19 ?v2 ?v3)))))))
(assert (forall ((?v0 S2) (?v1 S9) (?v2 S2)) (= (= (f32 (f33 f34 ?v0) ?v1) (f32 (f33 f34 ?v2) ?v1)) (forall ((?v3 S3)) (=> (= (f14 ?v3 (f15 ?v1)) f1) (= (f3 ?v0 ?v3) (f3 ?v2 ?v3)))))))
(assert (forall ((?v0 S9) (?v1 S12)) (= (exists ((?v2 S9)) (= ?v0 (f17 (f36 f37 ?v1) ?v2))) (forall ((?v2 S3)) (=> (= (f14 ?v2 (f15 ?v0)) f1) (exists ((?v3 S3)) (= ?v2 (f21 ?v1 ?v3))))))))
(assert (forall ((?v0 S6) (?v1 S11)) (= (exists ((?v2 S6)) (= ?v0 (f38 (f39 f40 ?v1) ?v2))) (forall ((?v2 S4)) (=> (= (f26 ?v2 (f41 ?v0)) f1) (exists ((?v3 S4)) (= ?v2 (f19 ?v1 ?v3))))))))
(assert (forall ((?v0 S6) (?v1 S2)) (= (exists ((?v2 S9)) (= ?v0 (f32 (f33 f34 ?v1) ?v2))) (forall ((?v2 S4)) (=> (= (f26 ?v2 (f41 ?v0)) f1) (exists ((?v3 S3)) (= ?v2 (f3 ?v1 ?v3))))))))
(assert (forall ((?v0 S9) (?v1 S12) (?v2 S12)) (=> (forall ((?v3 S3)) (=> (= (f14 ?v3 (f15 ?v0)) f1) (= (f21 ?v1 ?v3) (f21 ?v2 ?v3)))) (= (f17 (f36 f37 ?v1) ?v0) (f17 (f36 f37 ?v2) ?v0)))))
(assert (forall ((?v0 S6) (?v1 S11) (?v2 S11)) (=> (forall ((?v3 S4)) (=> (= (f26 ?v3 (f41 ?v0)) f1) (= (f19 ?v1 ?v3) (f19 ?v2 ?v3)))) (= (f38 (f39 f40 ?v1) ?v0) (f38 (f39 f40 ?v2) ?v0)))))
(assert (forall ((?v0 S9) (?v1 S2) (?v2 S2)) (=> (forall ((?v3 S3)) (=> (= (f14 ?v3 (f15 ?v0)) f1) (= (f3 ?v1 ?v3) (f3 ?v2 ?v3)))) (= (f32 (f33 f34 ?v1) ?v0) (f32 (f33 f34 ?v2) ?v0)))))
(assert (forall ((?v0 S9) (?v1 S12)) (=> (forall ((?v2 S3)) (=> (= (f14 ?v2 (f15 ?v0)) f1) (= (f21 ?v1 ?v2) ?v2))) (= (f17 (f36 f37 ?v1) ?v0) ?v0))))
(assert (forall ((?v0 S6) (?v1 S11)) (=> (forall ((?v2 S4)) (=> (= (f26 ?v2 (f41 ?v0)) f1) (= (f19 ?v1 ?v2) ?v2))) (= (f38 (f39 f40 ?v1) ?v0) ?v0))))
(assert (forall ((?v0 S9) (?v1 S9) (?v2 S12) (?v3 S12)) (=> (= ?v0 ?v1) (=> (forall ((?v4 S3)) (=> (= (f14 ?v4 (f15 ?v1)) f1) (= (f21 ?v2 ?v4) (f21 ?v3 ?v4)))) (= (f17 (f36 f37 ?v2) ?v0) (f17 (f36 f37 ?v3) ?v1))))))
(assert (forall ((?v0 S6) (?v1 S6) (?v2 S11) (?v3 S11)) (=> (= ?v0 ?v1) (=> (forall ((?v4 S4)) (=> (= (f26 ?v4 (f41 ?v1)) f1) (= (f19 ?v2 ?v4) (f19 ?v3 ?v4)))) (= (f38 (f39 f40 ?v2) ?v0) (f38 (f39 f40 ?v3) ?v1))))))
(assert (forall ((?v0 S9) (?v1 S9) (?v2 S2) (?v3 S2)) (=> (= ?v0 ?v1) (=> (forall ((?v4 S3)) (=> (= (f14 ?v4 (f15 ?v1)) f1) (= (f3 ?v2 ?v4) (f3 ?v3 ?v4)))) (= (f32 (f33 f34 ?v2) ?v0) (f32 (f33 f34 ?v3) ?v1))))))
(assert (or (= f5 (f8 (f9 (f42 f43 (f30 f31 (f32 (f33 f34 f13) f16))) f6) (f38 (f44 f45 f46) f47))) (exists ((?v0 S3)) (and (= (f14 ?v0 (f15 f16)) f1) (= f5 (f21 (f28 f29 (f30 f31 (f32 (f33 f34 f13) f16))) ?v0))))))
(assert (forall ((?v0 S6)) (= (= (f30 f31 ?v0) f6) (= (f26 f6 (f41 ?v0)) f1))))
(assert (forall ((?v0 S9) (?v1 S6)) (=> (forall ((?v2 S3)) (=> (= (f14 ?v2 (f15 ?v0)) f1) (not (= (f3 f13 ?v2) f6)))) (= (exists ((?v2 S4)) (forall ((?v3 S3)) (=> (= (f14 ?v3 (f15 (f17 f18 ?v0))) f1) (= (f48 ?v3 (f38 (f44 f45 ?v2) ?v1)) f1)))) (exists ((?v2 S4)) (forall ((?v3 S3)) (=> (= (f14 ?v3 (f15 ?v0)) f1) (= (f48 ?v3 (f38 (f44 f45 ?v2) ?v1)) f1))))))))
(assert (forall ((?v0 S4)) (= (f26 (f19 f20 ?v0) f49) f1)))
(assert (forall ((?v0 S4) (?v1 S6) (?v2 S4) (?v3 S4) (?v4 S6)) (not (= (f8 (f9 f10 ?v0) ?v1) (f8 (f9 (f42 f43 ?v2) ?v3) ?v4)))))
(check-sat)
(exit)
